
  14    0


   0   9 2 3 4 5 6 10 11 12 13 
   4   2 9 8 
   3   1 9 
   2   1 8 
   3   1 7 
   2   1 7 
   8   1 14
   9   1 14
   2   1 14
   1   1 14
   3   1 14
   3   1 14
   7   1 14
   0   0 
